&bands
prefix = 'MoS2'
filband = 'bands.dat'
/
